words_hard_train/3633.qaiger
aag 107 24 0 1 83
2
4
12
14
18
22
26
30
34
44
52
66
82
98
112
120
154
156
160
166
172
182
184
210
215
6 2 4
8 3 5
10 7 9
16 13 15
20 16 19
24 20 23
28 24 27
32 28 31
36 32 35
38 11 36
40 10 37
42 39 41
46 44 12
48 12 14
50 49 17
54 50 52
56 47 55
58 51 53
60 57 59
62 17 18
64 63 21
68 65 67
70 64 66
72 69 71
74 60 72
76 75 71
78 21 22
80 79 25
84 81 83
86 80 82
88 85 87
90 77 88
92 91 87
94 25 26
96 95 29
100 97 99
102 96 98
104 101 103
106 93 104
108 29 30
110 109 33
114 111 113
116 33 34
118 117 37
122 119 121
124 118 120
126 123 125
128 115 126
130 106 128
132 131 125
134 110 112
136 135 103
138 137 128
140 132 139
142 42 141
144 43 140
146 143 145
148 103 129
150 135 127
152 149 151
158 154 156
162 158 160
164 162 56
168 164 166
170 168 91
174 170 172
176 75 59
178 87 105
180 176 179
186 182 184
188 45 13
190 186 189
192 76 89
194 190 193
196 180 194
198 174 196
200 198 107
202 152 200
204 61 73
206 139 205
208 202 206
212 209 210
214 146 212
i0 1 x1[7]
i1 2 y1[7]
i2 2 y1[0]
i3 2 y1[1]
i4 2 y1[2]
i5 2 y1[3]
i6 2 y1[4]
i7 2 y1[5]
i8 2 y1[6]
i9 1 x1[0]
i10 1 x1[1]
i11 1 x1[2]
i12 1 x1[3]
i13 1 x1[4]
i14 1 x1[5]
i15 1 x1[6]
i16 1 x2[4]
i17 1 x2[5]
i18 1 x2[3]
i19 1 x2[1]
i20 1 x2[6]
i21 1 x2[0]
i22 1 x2[2]
i23 1 x2[7]
o0 bv[0]
c
simplified
  >
    and
      1 x2
      subtract
        1 x1
        2 y1
    invert
      1
