words_hard_train/3633.qaiger.qdimacs
p cnf 107 250
a 1 33 41 105 77 78 92 80 49 83 22 86 56 26 91 60 0
e 2 3 4 5 6 7 8 9 10 11 12 13 14 15 16 17 18 19 20 21 23 24 25 27 28 29 30 31 32 34 35 36 37 38 39 40 42 43 44 45 46 47 48 50 51 52 53 54 55 57 58 59 61 62 63 64 65 66 67 68 69 70 71 72 73 74 75 76 79 81 82 84 85 87 88 89 90 93 94 95 96 97 98 99 100 101 102 103 104 106 107 0
-1 -2 3 0
1 -3 0
2 -3 0
1 2 4 0
-1 -4 0
-2 -4 0
3 4 5 0
-3 -5 0
-4 -5 0
6 7 8 0
-6 -8 0
-7 -8 0
-8 9 10 0
8 -10 0
-9 -10 0
-10 11 12 0
10 -12 0
-11 -12 0
-12 13 14 0
12 -14 0
-13 -14 0
-14 15 16 0
14 -16 0
-15 -16 0
-16 17 18 0
16 -18 0
-17 -18 0
5 -18 19 0
-5 -19 0
18 -19 0
-5 18 20 0
5 -20 0
-18 -20 0
19 20 21 0
-19 -21 0
-20 -21 0
-22 -6 23 0
22 -23 0
6 -23 0
-6 -7 24 0
6 -24 0
7 -24 0
24 8 25 0
-24 -25 0
-8 -25 0
-25 -26 27 0
25 -27 0
26 -27 0
23 27 28 0
-23 -28 0
-27 -28 0
25 26 29 0
-25 -29 0
-26 -29 0
28 29 30 0
-28 -30 0
-29 -30 0
8 -9 31 0
-8 -31 0
9 -31 0
31 10 32 0
-31 -32 0
-10 -32 0
32 33 34 0
-32 -34 0
-33 -34 0
-32 -33 35 0
32 -35 0
33 -35 0
34 35 36 0
-34 -36 0
-35 -36 0
-30 -36 37 0
30 -37 0
36 -37 0
37 35 38 0
-37 -38 0
-35 -38 0
10 -11 39 0
-10 -39 0
11 -39 0
39 12 40 0
-39 -40 0
-12 -40 0
40 41 42 0
-40 -42 0
-41 -42 0
-40 -41 43 0
40 -43 0
41 -43 0
42 43 44 0
-42 -44 0
-43 -44 0
38 -44 45 0
-38 -45 0
44 -45 0
45 43 46 0
-45 -46 0
-43 -46 0
12 -13 47 0
-12 -47 0
13 -47 0
47 14 48 0
-47 -48 0
-14 -48 0
48 49 50 0
-48 -50 0
-49 -50 0
-48 -49 51 0
48 -51 0
49 -51 0
50 51 52 0
-50 -52 0
-51 -52 0
46 -52 53 0
-46 -53 0
52 -53 0
14 -15 54 0
-14 -54 0
15 -54 0
54 16 55 0
-54 -55 0
-16 -55 0
55 56 57 0
-55 -57 0
-56 -57 0
16 -17 58 0
-16 -58 0
17 -58 0
58 18 59 0
-58 -59 0
-18 -59 0
59 60 61 0
-59 -61 0
-60 -61 0
-59 -60 62 0
59 -62 0
60 -62 0
61 62 63 0
-61 -63 0
-62 -63 0
57 -63 64 0
-57 -64 0
63 -64 0
-53 -64 65 0
53 -65 0
64 -65 0
65 62 66 0
-65 -66 0
-62 -66 0
-55 -56 67 0
55 -67 0
56 -67 0
67 51 68 0
-67 -68 0
-51 -68 0
68 -64 69 0
-68 -69 0
64 -69 0
-66 69 70 0
66 -70 0
-69 -70 0
-21 70 71 0
21 -71 0
-70 -71 0
21 -70 72 0
-21 -72 0
70 -72 0
71 72 73 0
-71 -73 0
-72 -73 0
51 64 74 0
-51 -74 0
-64 -74 0
67 63 75 0
-67 -75 0
-63 -75 0
74 75 76 0
-74 -76 0
-75 -76 0
-77 -78 79 0
77 -79 0
78 -79 0
-79 -80 81 0
79 -81 0
80 -81 0
-81 -28 82 0
81 -82 0
28 -82 0
-82 -83 84 0
82 -84 0
83 -84 0
-84 45 85 0
84 -85 0
-45 -85 0
-85 -86 87 0
85 -87 0
86 -87 0
37 29 88 0
-37 -88 0
-29 -88 0
43 52 89 0
-43 -89 0
-52 -89 0
-88 89 90 0
88 -90 0
-89 -90 0
-91 -92 93 0
91 -93 0
92 -93 0
22 6 94 0
-22 -94 0
-6 -94 0
-93 94 95 0
93 -95 0
-94 -95 0
-38 44 96 0
38 -96 0
-44 -96 0
-95 96 97 0
95 -97 0
-96 -97 0
-90 -97 98 0
90 -98 0
97 -98 0
-87 -98 99 0
87 -99 0
98 -99 0
-99 53 100 0
99 -100 0
-53 -100 0
-76 -100 101 0
76 -101 0
100 -101 0
30 36 102 0
-30 -102 0
-36 -102 0
69 102 103 0
-69 -103 0
-102 -103 0
-101 -103 104 0
101 -104 0
103 -104 0
104 -105 106 0
-104 -106 0
105 -106 0
-73 -106 107 0
73 -107 0
106 -107 0
-107 0
